c CNF
c from Selman's wff generator
p cnf 200  1500
1.0 -102 -126 0
1.0 188 22 0
1.0 -31 40 0
1.0 -17 -126 0
1.0 -77 52 0
1.0 11 7 0
1.0 -86 -154 0
1.0 -42 -112 0
1.0 37 93 0
1.0 115 -185 0
1.0 -24 38 0
1.0 -164 72 0
1.0 123 -67 0
1.0 73 -158 0
1.0 -111 -137 0
1.0 49 69 0
1.0 -162 191 0
1.0 175 -179 0
1.0 16 -177 0
1.0 49 -194 0
1.0 -61 -79 0
1.0 36 -132 0
1.0 69 -193 0
1.0 61 195 0
1.0 185 -115 0
1.0 -93 -118 0
1.0 95 -196 0
1.0 -189 107 0
1.0 -185 18 0
1.0 -150 73 0
1.0 -65 -66 0
1.0 -60 140 0
1.0 54 -46 0
1.0 163 160 0
1.0 -155 -142 0
1.0 -49 113 0
1.0 130 174 0
1.0 46 -21 0
1.0 87 -33 0
1.0 -173 185 0
1.0 -30 -193 0
1.0 152 -26 0
1.0 167 48 0
1.0 160 41 0
1.0 -14 102 0
1.0 -122 66 0
1.0 -99 6 0
1.0 190 145 0
1.0 137 68 0
1.0 -93 59 0
1.0 107 42 0
1.0 -83 122 0
1.0 -24 -124 0
1.0 -190 123 0
1.0 -129 -108 0
1.0 -52 -55 0
1.0 122 148 0
1.0 7 -69 0
1.0 -111 -148 0
1.0 70 134 0
1.0 58 42 0
1.0 -165 191 0
1.0 99 -93 0
1.0 -147 148 0
1.0 96 -13 0
1.0 82 -157 0
1.0 -105 -193 0
1.0 126 -74 0
1.0 116 103 0
1.0 -94 -164 0
1.0 -56 185 0
1.0 133 79 0
1.0 -92 -155 0
1.0 -111 144 0
1.0 -136 152 0
1.0 26 -54 0
1.0 157 73 0
1.0 37 196 0
1.0 181 -183 0
1.0 -61 -166 0
1.0 -120 72 0
1.0 16 -91 0
1.0 42 34 0
1.0 88 57 0
1.0 130 -31 0
1.0 26 135 0
1.0 -117 -152 0
1.0 -117 62 0
1.0 134 -53 0
1.0 -143 -112 0
1.0 146 113 0
1.0 169 60 0
1.0 90 -170 0
1.0 -104 121 0
1.0 -73 -43 0
1.0 105 126 0
1.0 -178 -92 0
1.0 -4 -87 0
1.0 -200 -156 0
1.0 16 -58 0
1.0 28 -130 0
1.0 -51 -144 0
1.0 -186 149 0
1.0 -74 137 0
1.0 -28 115 0
1.0 -1 -76 0
1.0 -32 162 0
1.0 -20 34 0
1.0 -164 174 0
1.0 -118 -129 0
1.0 -77 -48 0
1.0 185 121 0
1.0 35 172 0
1.0 47 24 0
1.0 -185 3 0
1.0 36 -78 0
1.0 52 -28 0
1.0 156 150 0
1.0 -198 -66 0
1.0 -186 183 0
1.0 154 38 0
1.0 61 91 0
1.0 93 -4 0
1.0 -81 -100 0
1.0 -127 141 0
1.0 -91 174 0
1.0 39 97 0
1.0 80 64 0
1.0 101 -100 0
1.0 190 112 0
1.0 116 -55 0
1.0 -154 138 0
1.0 -79 -30 0
1.0 4 79 0
1.0 176 125 0
1.0 189 111 0
1.0 10 -121 0
1.0 33 -55 0
1.0 -109 93 0
1.0 -30 -73 0
1.0 102 -108 0
1.0 -186 -132 0
1.0 57 12 0
1.0 -123 -105 0
1.0 -25 182 0
1.0 36 -14 0
1.0 106 -149 0
1.0 21 -150 0
1.0 57 120 0
1.0 52 -174 0
1.0 -186 -21 0
1.0 125 -85 0
1.0 66 -172 0
1.0 185 12 0
1.0 161 -52 0
1.0 -2 70 0
1.0 -190 131 0
1.0 105 -148 0
1.0 100 -198 0
1.0 37 198 0
1.0 -5 152 0
1.0 -197 84 0
1.0 110 -159 0
1.0 -62 -107 0
1.0 7 -9 0
1.0 156 187 0
1.0 184 85 0
1.0 83 90 0
1.0 -42 21 0
1.0 104 81 0
1.0 -39 -133 0
1.0 40 161 0
1.0 -169 -190 0
1.0 -176 -193 0
1.0 -78 -20 0
1.0 110 -7 0
1.0 -27 -150 0
1.0 -31 73 0
1.0 -5 135 0
1.0 95 63 0
1.0 -53 47 0
1.0 -40 -168 0
1.0 188 166 0
1.0 173 -123 0
1.0 -73 -36 0
1.0 -108 -73 0
1.0 -8 -141 0
1.0 -3 46 0
1.0 93 -154 0
1.0 121 -71 0
1.0 37 125 0
1.0 48 -54 0
1.0 89 -137 0
1.0 -10 193 0
1.0 -134 -64 0
1.0 -110 84 0
1.0 -37 -75 0
1.0 145 -184 0
1.0 -109 -72 0
1.0 125 197 0
1.0 134 -97 0
1.0 -89 117 0
1.0 -181 78 0
1.0 162 -151 0
1.0 -25 -28 0
1.0 -11 -22 0
1.0 94 140 0
1.0 137 149 0
1.0 45 -40 0
1.0 -157 -173 0
1.0 50 115 0
1.0 65 121 0
1.0 149 -165 0
1.0 186 10 0
1.0 149 152 0
1.0 -100 -127 0
1.0 167 -169 0
1.0 141 -34 0
1.0 149 89 0
1.0 -9 -11 0
1.0 -175 -163 0
1.0 172 -194 0
1.0 146 136 0
1.0 -63 161 0
1.0 -130 68 0
1.0 101 12 0
1.0 100 -63 0
1.0 73 166 0
1.0 128 182 0
1.0 176 -47 0
1.0 -182 26 0
1.0 187 -155 0
1.0 -22 -24 0
1.0 -36 -47 0
1.0 110 -35 0
1.0 200 -110 0
1.0 92 37 0
1.0 -83 47 0
1.0 -72 153 0
1.0 -107 -180 0
1.0 4 160 0
1.0 -6 -24 0
1.0 58 18 0
1.0 -128 127 0
1.0 163 12 0
1.0 -58 -72 0
1.0 -24 -17 0
1.0 197 162 0
1.0 121 -112 0
1.0 135 -14 0
1.0 31 -139 0
1.0 -65 35 0
1.0 46 -61 0
1.0 133 -182 0
1.0 199 -21 0
1.0 -183 -147 0
1.0 58 -35 0
1.0 -48 71 0
1.0 10 34 0
1.0 -68 -12 0
1.0 73 173 0
1.0 -155 -50 0
1.0 -70 47 0
1.0 -194 143 0
1.0 177 184 0
1.0 -55 27 0
1.0 -61 -138 0
1.0 150 38 0
1.0 11 -58 0
1.0 -107 -187 0
1.0 34 65 0
1.0 7 -183 0
1.0 167 120 0
1.0 146 109 0
1.0 -47 -22 0
1.0 60 175 0
1.0 32 -43 0
1.0 -29 152 0
1.0 16 142 0
1.0 124 166 0
1.0 -85 12 0
1.0 121 -197 0
1.0 -19 170 0
1.0 -145 -179 0
1.0 -21 183 0
1.0 -134 -28 0
1.0 -169 1 0
1.0 -167 176 0
1.0 188 -95 0
1.0 91 -118 0
1.0 -88 36 0
1.0 14 135 0
1.0 118 121 0
1.0 -148 -197 0
1.0 198 -171 0
1.0 146 -192 0
1.0 87 -96 0
1.0 13 115 0
1.0 -151 -73 0
1.0 -8 -138 0
1.0 -59 84 0
1.0 -81 176 0
1.0 146 132 0
1.0 124 55 0
1.0 -150 -66 0
1.0 181 -73 0
1.0 145 -192 0
1.0 130 -94 0
1.0 -177 53 0
1.0 -29 -118 0
1.0 50 -175 0
1.0 -30 -91 0
1.0 -157 -169 0
1.0 42 -3 0
1.0 -194 -161 0
1.0 -54 16 0
1.0 69 106 0
1.0 24 22 0
1.0 196 137 0
1.0 -28 -5 0
1.0 146 -120 0
1.0 -187 -24 0
1.0 163 -65 0
1.0 176 32 0
1.0 -119 -143 0
1.0 -14 -178 0
1.0 -23 162 0
1.0 166 -161 0
1.0 81 86 0
1.0 110 1 0
1.0 65 16 0
1.0 -47 -96 0
1.0 -39 28 0
1.0 5 43 0
1.0 4 -181 0
1.0 142 126 0
1.0 11 -141 0
1.0 -141 103 0
1.0 119 -41 0
1.0 -137 -169 0
1.0 196 -37 0
1.0 79 31 0
1.0 11 -105 0
1.0 -30 133 0
1.0 -73 63 0
1.0 166 151 0
1.0 192 -65 0
1.0 -33 180 0
1.0 17 132 0
1.0 -163 -55 0
1.0 -159 -30 0
1.0 162 100 0
1.0 163 -189 0
1.0 139 -67 0
1.0 131 -62 0
1.0 -41 162 0
1.0 -94 19 0
1.0 73 130 0
1.0 159 -156 0
1.0 -56 50 0
1.0 -38 -4 0
1.0 -70 158 0
1.0 -19 165 0
1.0 -127 155 0
1.0 174 69 0
1.0 199 -106 0
1.0 61 -99 0
1.0 -148 -34 0
1.0 -37 -79 0
1.0 -37 68 0
1.0 -33 -70 0
1.0 -25 -32 0
1.0 101 54 0
1.0 159 123 0
1.0 -21 -134 0
1.0 -167 70 0
1.0 -149 -115 0
1.0 183 16 0
1.0 -85 -155 0
1.0 -186 151 0
1.0 -4 -152 0
1.0 -74 41 0
1.0 174 -119 0
1.0 -188 -16 0
1.0 -131 -53 0
1.0 -68 -161 0
1.0 115 -101 0
1.0 -52 170 0
1.0 122 -171 0
1.0 11 -1 0
1.0 -120 -151 0
1.0 167 69 0
1.0 121 -164 0
1.0 -124 139 0
1.0 -40 3 0
1.0 -173 125 0
1.0 95 -165 0
1.0 165 177 0
1.0 -128 14 0
1.0 -82 34 0
1.0 -198 -2 0
1.0 -141 -132 0
1.0 135 -98 0
1.0 22 -17 0
1.0 181 -89 0
1.0 66 -110 0
1.0 123 21 0
1.0 55 79 0
1.0 -81 197 0
1.0 129 132 0
1.0 -29 71 0
1.0 -87 171 0
1.0 59 -189 0
1.0 -98 42 0
1.0 62 -4 0
1.0 -82 -32 0
1.0 -29 -141 0
1.0 72 183 0
1.0 -53 -190 0
1.0 160 118 0
1.0 -106 18 0
1.0 59 -60 0
1.0 63 -50 0
1.0 -82 -5 0
1.0 145 89 0
1.0 -71 -88 0
1.0 77 67 0
1.0 184 69 0
1.0 86 -198 0
1.0 57 -117 0
1.0 167 101 0
1.0 -106 170 0
1.0 58 -25 0
1.0 113 -182 0
1.0 48 115 0
1.0 -183 82 0
1.0 79 -14 0
1.0 130 77 0
1.0 -178 119 0
1.0 -88 -102 0
1.0 127 199 0
1.0 181 126 0
1.0 40 54 0
1.0 135 180 0
1.0 -194 -102 0
1.0 179 -5 0
1.0 123 163 0
1.0 -65 -170 0
1.0 169 -30 0
1.0 -156 -58 0
1.0 111 36 0
1.0 16 108 0
1.0 -10 -9 0
1.0 -14 -151 0
1.0 -114 -180 0
1.0 -150 -103 0
1.0 133 199 0
1.0 57 -43 0
1.0 79 100 0
1.0 -8 73 0
1.0 82 35 0
1.0 186 147 0
1.0 127 179 0
1.0 -81 47 0
1.0 -46 -62 0
1.0 105 -184 0
1.0 84 82 0
1.0 -154 181 0
1.0 -15 112 0
1.0 59 -161 0
1.0 139 177 0
1.0 24 57 0
1.0 -118 135 0
1.0 118 39 0
1.0 121 83 0
1.0 -63 200 0
1.0 112 -40 0
1.0 -1 -178 0
1.0 -155 -17 0
1.0 73 -192 0
1.0 126 17 0
1.0 56 -19 0
1.0 101 -137 0
1.0 137 160 0
1.0 200 -120 0
1.0 -98 173 0
1.0 190 98 0
1.0 89 76 0
1.0 92 -66 0
1.0 -84 -104 0
1.0 -40 -174 0
1.0 134 -190 0
1.0 -110 42 0
1.0 15 71 0
1.0 168 88 0
1.0 164 119 0
1.0 185 130 0
1.0 34 126 0
1.0 99 2 0
1.0 -192 -74 0
1.0 -115 -97 0
1.0 -168 -166 0
1.0 -54 200 0
1.0 119 -63 0
1.0 -193 74 0
1.0 199 25 0
1.0 -27 149 0
1.0 -22 -95 0
1.0 192 -26 0
1.0 191 200 0
1.0 199 -86 0
1.0 149 -132 0
1.0 -5 191 0
1.0 -16 67 0
1.0 15 31 0
1.0 -126 -177 0
1.0 2 -39 0
1.0 39 170 0
1.0 -55 97 0
1.0 -28 173 0
1.0 164 -112 0
1.0 178 -137 0
1.0 168 78 0
1.0 55 2 0
1.0 41 86 0
1.0 -56 -84 0
1.0 -180 68 0
1.0 41 58 0
1.0 -169 -75 0
1.0 -11 -2 0
1.0 79 -168 0
1.0 -169 81 0
1.0 167 37 0
1.0 -120 2 0
1.0 -70 -45 0
1.0 -102 145 0
1.0 20 95 0
1.0 96 -156 0
1.0 -123 80 0
1.0 -160 -97 0
1.0 -133 188 0
1.0 -189 79 0
1.0 -123 58 0
1.0 2 82 0
1.0 176 112 0
1.0 67 -60 0
1.0 139 154 0
1.0 51 -182 0
1.0 169 -171 0
1.0 49 -187 0
1.0 -44 185 0
1.0 66 91 0
1.0 -2 119 0
1.0 178 -160 0
1.0 114 -140 0
1.0 -121 39 0
1.0 10 182 0
1.0 168 63 0
1.0 48 -25 0
1.0 -116 -125 0
1.0 -43 68 0
1.0 -28 -45 0
1.0 -185 -151 0
1.0 -189 -50 0
1.0 32 -42 0
1.0 104 -85 0
1.0 110 68 0
1.0 -193 19 0
1.0 86 -129 0
1.0 173 -191 0
1.0 141 -157 0
1.0 -7 57 0
1.0 98 184 0
1.0 -69 -48 0
1.0 116 -16 0
1.0 -34 -146 0
1.0 74 197 0
1.0 188 -86 0
1.0 43 66 0
1.0 123 186 0
1.0 169 124 0
1.0 171 174 0
1.0 -190 18 0
1.0 -164 136 0
1.0 132 -177 0
1.0 62 -88 0
1.0 -154 105 0
1.0 90 40 0
1.0 164 -118 0
1.0 92 109 0
1.0 -127 13 0
1.0 -148 50 0
1.0 -26 11 0
1.0 -99 45 0
1.0 -150 145 0
1.0 185 -25 0
1.0 143 191 0
1.0 -100 101 0
1.0 -113 22 0
1.0 -71 41 0
1.0 -52 -137 0
1.0 182 -174 0
1.0 -119 -129 0
1.0 154 66 0
1.0 -57 -131 0
1.0 -31 -45 0
1.0 67 -96 0
1.0 137 -142 0
1.0 -78 15 0
1.0 -189 -139 0
1.0 68 159 0
1.0 -25 59 0
1.0 190 46 0
1.0 -90 -19 0
1.0 114 166 0
1.0 107 -125 0
1.0 140 -176 0
1.0 115 -34 0
1.0 192 42 0
1.0 101 119 0
1.0 -164 135 0
1.0 153 72 0
1.0 -38 -103 0
1.0 -27 -156 0
1.0 131 172 0
1.0 5 -127 0
1.0 169 30 0
1.0 -148 -111 0
1.0 -46 -67 0
1.0 138 -174 0
1.0 -76 -182 0
1.0 137 47 0
1.0 -19 162 0
1.0 88 140 0
1.0 -170 -33 0
1.0 143 -82 0
1.0 -148 193 0
1.0 167 50 0
1.0 -32 -180 0
1.0 26 14 0
1.0 175 148 0
1.0 87 -119 0
1.0 44 -173 0
1.0 1 -50 0
1.0 -35 158 0
1.0 -18 -2 0
1.0 146 -84 0
1.0 -118 68 0
1.0 -135 198 0
1.0 -117 -8 0
1.0 181 -3 0
1.0 -52 156 0
1.0 -113 -134 0
1.0 -136 87 0
1.0 170 151 0
1.0 -18 -175 0
1.0 -172 105 0
1.0 113 115 0
1.0 118 -131 0
1.0 86 -50 0
1.0 -184 -27 0
1.0 -113 58 0
1.0 -8 40 0
1.0 -15 -123 0
1.0 28 -153 0
1.0 68 -121 0
1.0 -51 -107 0
1.0 -156 -9 0
1.0 35 -65 0
1.0 122 -57 0
1.0 -97 -200 0
1.0 123 -134 0
1.0 87 -170 0
1.0 -90 -122 0
1.0 28 -92 0
1.0 -100 -12 0
1.0 77 -180 0
1.0 -37 -111 0
1.0 110 84 0
1.0 -17 -139 0
1.0 109 -71 0
1.0 -192 195 0
1.0 86 -15 0
1.0 -27 -126 0
1.0 -106 -199 0
1.0 109 31 0
1.0 114 -118 0
1.0 57 -32 0
1.0 -102 90 0
1.0 -84 -101 0
1.0 -116 154 0
1.0 -72 47 0
1.0 -149 -88 0
1.0 163 198 0
1.0 -48 24 0
1.0 -57 -101 0
1.0 63 -74 0
1.0 186 -199 0
1.0 -153 23 0
1.0 70 88 0
1.0 -176 -75 0
1.0 73 -90 0
1.0 -114 -153 0
1.0 -54 -181 0
1.0 55 146 0
1.0 -145 160 0
1.0 -182 82 0
1.0 170 -18 0
1.0 93 -66 0
1.0 156 101 0
1.0 54 -85 0
1.0 65 -155 0
1.0 -101 103 0
1.0 -62 99 0
1.0 181 -65 0
1.0 83 -163 0
1.0 -29 -179 0
1.0 80 -25 0
1.0 109 -93 0
1.0 48 -62 0
1.0 -164 51 0
1.0 150 -136 0
1.0 1 163 0
1.0 126 -177 0
1.0 -156 198 0
1.0 -23 -192 0
1.0 -85 -7 0
1.0 69 196 0
1.0 46 -73 0
1.0 -9 126 0
1.0 89 6 0
1.0 -182 -151 0
1.0 -149 -107 0
1.0 -99 -140 0
1.0 -146 6 0
1.0 2 194 0
1.0 66 104 0
1.0 29 -168 0
1.0 -173 -175 0
1.0 126 100 0
1.0 6 -64 0
1.0 3 -147 0
1.0 -152 -1 0
1.0 194 9 0
1.0 -112 -43 0
1.0 11 -15 0
1.0 -189 -190 0
1.0 -89 29 0
1.0 -93 33 0
1.0 179 -86 0
1.0 86 6 0
1.0 -14 -85 0
1.0 128 -71 0
1.0 -85 124 0
1.0 -113 59 0
1.0 88 -176 0
1.0 8 -94 0
1.0 -180 117 0
1.0 -122 -2 0
1.0 87 83 0
1.0 -154 126 0
1.0 -49 -74 0
1.0 -132 99 0
1.0 -75 58 0
1.0 152 -73 0
1.0 -189 -188 0
1.0 189 140 0
1.0 23 -106 0
1.0 32 43 0
1.0 116 125 0
1.0 24 4 0
1.0 -62 65 0
1.0 -137 -51 0
1.0 38 139 0
1.0 -79 -82 0
1.0 188 192 0
1.0 35 -91 0
1.0 -16 141 0
1.0 -145 64 0
1.0 128 119 0
1.0 -169 162 0
1.0 101 -25 0
1.0 106 134 0
1.0 -126 -158 0
1.0 -49 12 0
1.0 -152 108 0
1.0 -172 41 0
1.0 -160 -121 0
1.0 -83 -151 0
1.0 -176 166 0
1.0 -100 43 0
1.0 -1 87 0
1.0 -98 96 0
1.0 -4 -16 0
1.0 57 48 0
1.0 -168 37 0
1.0 188 -78 0
1.0 44 -195 0
1.0 -38 17 0
1.0 104 154 0
1.0 50 199 0
1.0 15 196 0
1.0 44 102 0
1.0 138 -30 0
1.0 107 -93 0
1.0 87 -130 0
1.0 -147 61 0
1.0 15 50 0
1.0 -48 102 0
1.0 -98 -144 0
1.0 -46 -19 0
1.0 -48 -12 0
1.0 -104 -196 0
1.0 -125 197 0
1.0 -58 77 0
1.0 -126 -173 0
1.0 75 -52 0
1.0 -196 169 0
1.0 187 64 0
1.0 -76 -133 0
1.0 -128 93 0
1.0 -90 -84 0
1.0 161 47 0
1.0 19 155 0
1.0 6 97 0
1.0 65 178 0
1.0 42 -67 0
1.0 199 -74 0
1.0 -166 64 0
1.0 148 -104 0
1.0 -150 -21 0
1.0 176 -54 0
1.0 -150 127 0
1.0 104 -24 0
1.0 90 151 0
1.0 25 -156 0
1.0 20 -194 0
1.0 97 47 0
1.0 68 -15 0
1.0 77 24 0
1.0 -5 87 0
1.0 -152 -52 0
1.0 -113 6 0
1.0 20 117 0
1.0 -161 54 0
1.0 128 -157 0
1.0 -172 118 0
1.0 141 -190 0
1.0 -76 158 0
1.0 -10 -90 0
1.0 -96 -57 0
1.0 -173 -77 0
1.0 -131 39 0
1.0 196 -16 0
1.0 134 172 0
1.0 161 67 0
1.0 25 192 0
1.0 -81 -193 0
1.0 49 145 0
1.0 -22 -20 0
1.0 59 96 0
1.0 111 65 0
1.0 -37 -118 0
1.0 -136 -33 0
1.0 95 162 0
1.0 -117 184 0
1.0 76 156 0
1.0 -110 36 0
1.0 -46 -9 0
1.0 -30 160 0
1.0 -77 144 0
1.0 -176 98 0
1.0 -60 -147 0
1.0 131 91 0
1.0 -47 -120 0
1.0 -155 56 0
1.0 -64 76 0
1.0 -36 -58 0
1.0 -1 -131 0
1.0 29 64 0
1.0 11 -2 0
1.0 -93 -100 0
1.0 19 -50 0
1.0 -106 -56 0
1.0 131 -85 0
1.0 142 -24 0
1.0 -155 -3 0
1.0 67 163 0
1.0 165 134 0
1.0 -34 167 0
1.0 17 -91 0
1.0 146 200 0
1.0 84 155 0
1.0 -178 -121 0
1.0 -124 -84 0
1.0 47 186 0
1.0 120 -87 0
1.0 54 63 0
1.0 -154 32 0
1.0 -32 -84 0
1.0 -38 18 0
1.0 -138 106 0
1.0 190 63 0
1.0 49 -119 0
1.0 -5 113 0
1.0 -176 -128 0
1.0 160 -120 0
1.0 -3 2 0
1.0 19 -44 0
1.0 150 -4 0
1.0 -67 -69 0
1.0 187 -20 0
1.0 132 -6 0
1.0 134 177 0
1.0 96 63 0
1.0 -65 188 0
1.0 32 -194 0
1.0 -197 57 0
1.0 -125 -92 0
1.0 -111 62 0
1.0 -68 151 0
1.0 127 186 0
1.0 -49 -176 0
1.0 -163 -58 0
1.0 -52 35 0
1.0 -91 93 0
1.0 -185 89 0
1.0 -151 30 0
1.0 181 -89 0
1.0 -75 -111 0
1.0 86 50 0
1.0 107 -31 0
1.0 66 -17 0
1.0 -109 117 0
1.0 -6 -99 0
1.0 -129 -128 0
1.0 17 192 0
1.0 102 -145 0
1.0 194 49 0
1.0 80 -77 0
1.0 -93 64 0
1.0 180 -73 0
1.0 -172 84 0
1.0 11 115 0
1.0 -106 23 0
1.0 -167 -131 0
1.0 180 28 0
1.0 104 -118 0
1.0 -181 -105 0
1.0 -177 -92 0
1.0 175 -87 0
1.0 2 -55 0
1.0 -77 130 0
1.0 60 107 0
1.0 135 63 0
1.0 181 -102 0
1.0 -7 -31 0
1.0 -123 68 0
1.0 155 -177 0
1.0 32 -94 0
1.0 -23 177 0
1.0 -84 154 0
1.0 17 -21 0
1.0 -123 -90 0
1.0 -121 80 0
1.0 -148 -42 0
1.0 19 21 0
1.0 -115 -121 0
1.0 97 -108 0
1.0 -62 143 0
1.0 164 53 0
1.0 143 33 0
1.0 -113 126 0
1.0 -167 -45 0
1.0 66 -19 0
1.0 -140 192 0
1.0 100 -138 0
1.0 80 13 0
1.0 -66 114 0
1.0 146 143 0
1.0 -69 177 0
1.0 22 79 0
1.0 98 55 0
1.0 47 -185 0
1.0 -122 88 0
1.0 101 -146 0
1.0 -59 172 0
1.0 115 -45 0
1.0 22 181 0
1.0 -59 -38 0
1.0 -93 -198 0
1.0 182 -66 0
1.0 -154 192 0
1.0 137 -148 0
1.0 120 192 0
1.0 36 63 0
1.0 -44 -34 0
1.0 72 -31 0
1.0 -29 52 0
1.0 -117 187 0
1.0 -178 -18 0
1.0 -166 142 0
1.0 -134 -110 0
1.0 173 135 0
1.0 -168 127 0
1.0 158 -176 0
1.0 -28 -105 0
1.0 92 110 0
1.0 -127 138 0
1.0 -80 93 0
1.0 -3 -95 0
1.0 -29 -9 0
1.0 136 109 0
1.0 85 -39 0
1.0 143 74 0
1.0 -183 -71 0
1.0 9 87 0
1.0 -179 -178 0
1.0 -73 -83 0
1.0 92 148 0
1.0 -57 -134 0
1.0 173 -198 0
1.0 -72 109 0
1.0 -180 -53 0
1.0 139 -165 0
1.0 143 176 0
1.0 -59 -56 0
1.0 -4 15 0
1.0 149 -98 0
1.0 96 -53 0
1.0 162 -186 0
1.0 -38 -185 0
1.0 150 3 0
1.0 -178 193 0
1.0 -49 24 0
1.0 -38 -164 0
1.0 -61 -112 0
1.0 -165 -144 0
1.0 129 -144 0
1.0 -129 194 0
1.0 -196 -38 0
1.0 31 78 0
1.0 -101 -195 0
1.0 -159 42 0
1.0 -153 -32 0
1.0 176 -99 0
1.0 43 -108 0
1.0 102 14 0
1.0 51 19 0
1.0 -96 -80 0
1.0 -75 90 0
1.0 131 61 0
1.0 -93 28 0
1.0 -126 -42 0
1.0 -150 42 0
1.0 -55 -187 0
1.0 -6 -20 0
1.0 100 -145 0
1.0 -34 8 0
1.0 -60 48 0
1.0 47 54 0
1.0 25 180 0
1.0 -119 -90 0
1.0 -38 26 0
1.0 -11 -12 0
1.0 -110 -130 0
1.0 137 -153 0
1.0 200 24 0
1.0 -77 -96 0
1.0 -76 -173 0
1.0 62 87 0
1.0 -112 -9 0
1.0 21 -113 0
1.0 43 -66 0
1.0 -19 111 0
1.0 134 59 0
1.0 -155 200 0
1.0 173 78 0
1.0 -165 121 0
1.0 -130 -91 0
1.0 4 77 0
1.0 143 -153 0
1.0 -64 -2 0
1.0 61 44 0
1.0 43 119 0
1.0 197 -67 0
1.0 188 -183 0
1.0 73 37 0
1.0 -113 146 0
1.0 99 -147 0
1.0 -149 194 0
1.0 38 166 0
1.0 85 67 0
1.0 133 -143 0
1.0 125 -79 0
1.0 115 104 0
1.0 49 -195 0
1.0 -142 97 0
1.0 90 -68 0
1.0 34 -120 0
1.0 -187 -101 0
1.0 44 -40 0
1.0 -118 77 0
1.0 180 39 0
1.0 -33 -140 0
1.0 36 -85 0
1.0 153 -161 0
1.0 -81 59 0
1.0 -160 103 0
1.0 -142 26 0
1.0 102 136 0
1.0 -175 149 0
1.0 -89 -87 0
1.0 171 -44 0
1.0 -5 101 0
1.0 -160 -14 0
1.0 -116 137 0
1.0 -163 92 0
1.0 -28 7 0
1.0 156 57 0
1.0 -143 -189 0
1.0 33 16 0
1.0 -117 147 0
1.0 -160 73 0
1.0 -10 -117 0
1.0 8 49 0
1.0 56 183 0
1.0 39 -45 0
1.0 33 21 0
1.0 -36 -132 0
1.0 78 24 0
1.0 -97 -24 0
1.0 140 -46 0
1.0 -95 -114 0
1.0 -97 -18 0
1.0 -62 14 0
1.0 -35 11 0
1.0 142 63 0
1.0 87 -52 0
1.0 75 170 0
1.0 -15 -167 0
1.0 81 -142 0
1.0 -159 19 0
1.0 -33 28 0
1.0 -38 -75 0
1.0 -137 161 0
1.0 12 55 0
1.0 24 96 0
1.0 -63 -60 0
1.0 -1 -6 0
1.0 -25 32 0
1.0 -60 95 0
1.0 170 -62 0
1.0 -22 76 0
1.0 -130 -137 0
1.0 -32 18 0
1.0 77 140 0
1.0 146 -157 0
1.0 189 18 0
1.0 -113 151 0
1.0 -12 23 0
1.0 98 118 0
1.0 -54 184 0
1.0 -2 174 0
1.0 -113 15 0
1.0 172 -193 0
1.0 10 -56 0
1.0 6 153 0
1.0 175 191 0
1.0 108 -117 0
1.0 101 -80 0
1.0 -53 -25 0
1.0 39 135 0
1.0 -127 -52 0
1.0 107 -178 0
1.0 -130 -61 0
1.0 -51 -182 0
1.0 -99 -76 0
1.0 -155 166 0
1.0 -190 80 0
1.0 14 -198 0
1.0 49 -8 0
1.0 185 -133 0
1.0 193 200 0
1.0 181 195 0
1.0 70 122 0
1.0 87 179 0
1.0 -58 6 0
1.0 4 143 0
1.0 151 -86 0
1.0 19 77 0
1.0 76 69 0
1.0 -64 -57 0
1.0 -179 14 0
1.0 -192 191 0
1.0 -197 -46 0
1.0 189 -131 0
1.0 17 60 0
1.0 137 125 0
1.0 194 102 0
1.0 -158 -5 0
1.0 18 149 0
1.0 140 -143 0
1.0 -188 -179 0
1.0 -109 -188 0
1.0 -47 -190 0
1.0 -114 -7 0
1.0 -108 64 0
1.0 68 156 0
1.0 105 3 0
1.0 -146 -153 0
1.0 -131 117 0
1.0 -104 -24 0
1.0 -14 -125 0
1.0 132 129 0
1.0 -192 200 0
1.0 -156 107 0
1.0 -110 39 0
1.0 -191 -85 0
1.0 -1 -97 0
1.0 121 -126 0
1.0 50 -187 0
1.0 115 -97 0
1.0 -96 125 0
1.0 -32 -110 0
1.0 -148 -15 0
1.0 99 183 0
1.0 80 -21 0
1.0 -146 -57 0
1.0 -44 -195 0
1.0 91 -197 0
1.0 122 -31 0
1.0 140 149 0
1.0 163 90 0
1.0 -73 -87 0
1.0 -107 164 0
1.0 20 86 0
1.0 80 -24 0
1.0 -21 -87 0
1.0 118 195 0
1.0 -143 -189 0
1.0 -78 -171 0
1.0 -57 -128 0
1.0 91 -53 0
1.0 -138 64 0
1.0 -87 -197 0
1.0 84 146 0
1.0 140 143 0
1.0 -131 2 0
1.0 -173 155 0
1.0 -83 -60 0
1.0 112 10 0
1.0 73 -59 0
1.0 -55 66 0
1.0 -114 138 0
1.0 -196 -23 0
1.0 -10 -195 0
1.0 153 200 0
1.0 -194 20 0
1.0 104 -173 0
1.0 40 33 0
1.0 99 154 0
1.0 92 35 0
1.0 58 54 0
1.0 49 54 0
1.0 54 78 0
1.0 98 137 0
1.0 -109 -124 0
1.0 156 178 0
1.0 131 139 0
1.0 -174 134 0
1.0 188 193 0
1.0 47 -129 0
1.0 -7 -50 0
1.0 -186 197 0
1.0 120 67 0
1.0 -44 -87 0
1.0 -26 -196 0
1.0 129 -106 0
1.0 -99 -127 0
1.0 56 189 0
1.0 -39 193 0
1.0 -190 -71 0
1.0 -137 -163 0
1.0 -50 114 0
1.0 109 153 0
1.0 -58 -103 0
1.0 -29 105 0
1.0 -94 -147 0
1.0 -140 -113 0
1.0 184 -74 0
1.0 -37 22 0
1.0 -135 57 0
1.0 9 33 0
1.0 135 -33 0
1.0 137 124 0
1.0 -71 195 0
1.0 -108 117 0
1.0 191 178 0
1.0 -199 -113 0
1.0 -169 -72 0
1.0 104 55 0
1.0 87 66 0
1.0 190 51 0
1.0 46 -14 0
1.0 131 -12 0
1.0 -189 -57 0
1.0 -169 -59 0
1.0 -131 95 0
1.0 149 157 0
1.0 23 76 0
1.0 126 -110 0
1.0 -124 144 0
1.0 -155 -170 0
1.0 -26 -123 0
1.0 -182 -49 0
1.0 -143 45 0
1.0 -2 18 0
1.0 93 183 0
1.0 -92 107 0
1.0 50 116 0
1.0 -86 -45 0
1.0 -167 -76 0
1.0 124 37 0
1.0 -82 4 0
1.0 -22 -82 0
1.0 -64 -141 0
1.0 -47 123 0
1.0 -39 -41 0
1.0 85 47 0
1.0 -123 141 0
1.0 -177 57 0
1.0 -60 69 0
1.0 -151 46 0
1.0 -186 128 0
1.0 -51 141 0
1.0 182 30 0
1.0 -77 -47 0
1.0 187 -115 0
1.0 172 157 0
1.0 -26 -161 0
1.0 -7 -108 0
1.0 36 161 0
1.0 -102 154 0
1.0 -184 186 0
1.0 33 66 0
1.0 -181 -104 0
1.0 -61 2 0
1.0 163 -97 0
1.0 -5 54 0
1.0 -14 -185 0
1.0 -139 -99 0
1.0 -85 -147 0
1.0 -13 -42 0
1.0 -145 117 0
1.0 119 130 0
1.0 27 156 0
1.0 9 10 0
1.0 -195 138 0
1.0 -136 55 0
1.0 38 95 0
1.0 30 -90 0
1.0 36 -29 0
1.0 -122 146 0
1.0 195 22 0
1.0 -92 108 0
1.0 -46 -133 0
1.0 188 157 0
1.0 -52 160 0
1.0 49 126 0
1.0 155 91 0
1.0 -37 41 0
1.0 63 -37 0
1.0 145 -36 0
1.0 -168 -19 0
1.0 -175 35 0
1.0 -194 82 0
1.0 -7 -133 0
1.0 24 176 0
1.0 17 188 0
1.0 25 -127 0
1.0 -162 -72 0
1.0 90 129 0
1.0 164 -64 0
1.0 -145 -197 0
1.0 -130 -127 0
1.0 103 -149 0
1.0 -136 -105 0
1.0 -32 -30 0
1.0 -101 -86 0
1.0 15 -7 0
1.0 -70 145 0
1.0 -142 135 0
1.0 62 -78 0
1.0 27 -38 0
1.0 -142 -80 0
1.0 -109 50 0
1.0 135 -89 0
1.0 -96 -55 0
1.0 -200 -62 0
1.0 197 146 0
1.0 24 35 0
1.0 73 104 0
1.0 -183 133 0
1.0 -182 -153 0
1.0 42 -101 0
1.0 -156 -194 0
1.0 55 83 0
1.0 -29 106 0
1.0 -141 131 0
1.0 34 114 0
1.0 -46 14 0
1.0 -166 8 0
1.0 -108 11 0
1.0 4 48 0
1.0 -131 -113 0
1.0 -19 -12 0
1.0 -114 172 0
1.0 198 -73 0
1.0 -100 177 0
1.0 185 -19 0
1.0 -82 58 0
1.0 116 107 0
1.0 66 31 0
1.0 -189 -192 0
1.0 -174 -17 0
1.0 89 -169 0
1.0 146 -185 0
1.0 3 86 0
1.0 -144 35 0
1.0 142 196 0
1.0 26 126 0
1.0 -118 73 0
1.0 89 -133 0
1.0 -102 134 0
1.0 -118 -198 0
1.0 84 34 0
1.0 69 189 0
1.0 184 168 0
1.0 93 100 0
1.0 172 199 0
1.0 132 160 0
1.0 94 3 0
1.0 -200 55 0
1.0 -89 -137 0
1.0 -125 -194 0
1.0 -161 183 0
1.0 82 143 0
1.0 -141 163 0
1.0 -123 153 0
1.0 155 -185 0
1.0 40 -160 0
1.0 96 147 0
1.0 -141 -53 0
1.0 -35 -48 0
1.0 -190 -18 0
1.0 181 -86 0
1.0 -38 -108 0
1.0 -93 -147 0
1.0 106 185 0
1.0 132 146 0
1.0 -198 151 0
1.0 -198 -128 0
1.0 -145 -120 0
1.0 6 120 0
1.0 28 -147 0
1.0 94 -182 0
1.0 166 112 0
1.0 -57 23 0
1.0 174 -143 0
1.0 -71 35 0
1.0 -155 -76 0
1.0 195 169 0
1.0 -115 38 0
1.0 19 -194 0
1.0 106 -8 0
1.0 30 52 0
1.0 -194 101 0
1.0 136 132 0
1.0 7 20 0
1.0 188 -54 0
1.0 -91 -166 0
1.0 160 117 0
1.0 125 -176 0
1.0 -27 42 0
1.0 142 130 0
1.0 -62 164 0
1.0 184 -19 0
1.0 72 -93 0
1.0 59 183 0
1.0 100 164 0
1.0 -140 -109 0
1.0 -150 134 0
1.0 -64 -71 0
1.0 -35 137 0
1.0 -156 62 0
1.0 -154 61 0
1.0 44 -60 0
1.0 -24 -114 0
1.0 -23 -145 0
